(declare-const delta_z Int)
(declare-const delta_x Int)
(declare-const delta_y Int)
(declare-const delta_i Int)
(declare-const delta_k Int)
(declare-const delta_tmp___0 Int)
(declare-const delta_tmp___1 Int)
(declare-const delta_j___0 Int)
(declare-const delta_w Int)
(assert (exists
         ((|tmp___1'?1?1| Int) (|j___0'?2?2| Int) (|w'?3?3| Int)
            (|z'?4?4| Int) (havoc?5?5 Int) (|tmp___0'?6?6| Int)
            (|S1,1?7_integralized?7| Int) (|y'?8?8| Int)
            (|S1,0?9_integralized?9| Int) (|x'?10?10| Int) (KSUM1?11?11 Int)
            (|K1,1?12?12| Int) (|K1,0?13?13| Int) (K?14?14 Int)
            (phi_y?15?15 Int) (phi_x?16?16 Int)
            (|S1,1?17_integralized?17| Int) (|k'?18?18| Int)
            (|S1,0?19_integralized?19| Int) (|i'?20?20| Int)
            (KSUM1?21?21 Int) (|K1,0?22?22| Int) (K?23?23 Int)
            (havoc?24?24 Int) (|k'?25?25| Int) (|i'?26?26| Int)
            (|tmp___0'?27?27| Int) (|y'?28?28| Int) (|x'?29?29| Int)
            (tmp___0?30?30 Int) (y?31?31 Int) (x?32?32 Int) (k?33?33 Int)
            (j___0?34?34 Int) (i?35?35 Int) (w?36?36 Int) (z?37?37 Int)
            (tmp___1?38?38 Int) (remainder?39 Int) (remainder?40 Int)
            (quotient?41 Int) (quotient?42 Int))
         (and (<= (- x?32?32) 0) (<= (- z?37?37) 0)
                (or (< havoc?24?24 0) (< (- havoc?24?24) 0))
                (<= (- K?23?23) 0) (<= (- |K1,0?22?22|) 0)
                (= (+ |K1,0?22?22| (- K?23?23)) 0)
                (<= (+ KSUM1?21?21 (- K?23?23)) 0)
                (= (+ (- |S1,0?19_integralized?19|) |i'?20?20|
                        (- |K1,0?22?22|)) 0)
                (= (+ (- |S1,1?17_integralized?17|) |k'?18?18|
                        (- |K1,0?22?22|)) 0)
                (= (+ (- KSUM1?21?21) |K1,0?22?22|) 0)
                (= (+ |S1,0?19_integralized?19| (- z?37?37)) 0)
                (= |S1,1?17_integralized?17| 0)
                (or (and (= K?23?23 0) (= (- |k'?18?18|) 0)
                           (= (+ (- |i'?20?20|) z?37?37) 0))
                      (and (<= (+ (- K?23?23) 1) 0)
                             (<= (+ (- w?36?36) z?37?37 1) 0)
                             (<= (- z?37?37) 0)
                             (<= (+ (- w?36?36) |i'?20?20|) 0)
                             (<= (+ (- |k'?18?18|) 1) 0)
                             (<= (+ (- |i'?20?20|) 1) 0)))
                (= (+ |i'?20?20| (- K?23?23) (- z?37?37)) 0)
                (= (+ |k'?18?18| (- K?23?23)) 0) (<= (- K?23?23) 0)
                (<= (- |k'?18?18|) 0) (<= (- |i'?20?20|) 0)
                (<= (+ w?36?36 (- |i'?20?20|)) 0)
                (or (and (= (+ remainder?39 -1) 0)
                           (= (+ (- phi_x?16?16) z?37?37 1) 0)
                           (= (+ (- phi_y?15?15) |k'?18?18| -1) 0))
                      (and (or (< (+ remainder?39 -1) 0)
                                 (< (- (+ remainder?39 -1)) 0))
                             (= (+ (- phi_x?16?16) z?37?37) 0)
                             (= (+ (- phi_y?15?15) |k'?18?18|) 0)))
                (<= (- K?14?14) 0) (<= (- |K1,0?13?13|) 0)
                (<= (- |K1,1?12?12|) 0)
                (= (+ |K1,1?12?12| |K1,0?13?13| (- K?14?14)) 0)
                (<= (+ KSUM1?11?11 (- K?14?14)) 0)
                (= (+ (- |S1,0?9_integralized?9|) |x'?10?10|
                        (* -2 |K1,1?12?12|) |K1,0?13?13|) 0)
                (= (+ (- |S1,1?7_integralized?7|) |y'?8?8| (* 2 |K1,1?12?12|)
                        |K1,0?13?13|) 0)
                (= (+ (- KSUM1?11?11) |K1,1?12?12| |K1,0?13?13|) 0)
                (= (+ |S1,0?9_integralized?9| (- phi_x?16?16)) 0)
                (= (+ |S1,1?7_integralized?7| (- phi_y?15?15)) 0)
                (or (and (= K?14?14 0)
                           (= (+ (- |tmp___0'?6?6|) tmp___0?30?30) 0)
                           (= (+ (- |y'?8?8|) phi_y?15?15) 0)
                           (= (+ (- |x'?10?10|) phi_x?16?16) 0))
                      (and (<= (+ (- K?14?14) 1) 0)
                             (<= (+ remainder?40 -1) 0)
                             (<= (- remainder?40) 0) (<= (- phi_x?16?16) 0)
                             (<= (+ (- |x'?10?10|) -1) 0)))
                (= (+ (* 3 |y'?8?8|) |x'?10?10| (* 4 K?14?14)
                        (* -3 phi_y?15?15) (- phi_x?16?16)) 0)
                (<= (+ |y'?8?8| K?14?14 (- phi_y?15?15)) 0)
                (<= (+ (- |y'?8?8|) (* -2 K?14?14) phi_y?15?15) 0)
                (<= (- K?14?14) 0) (<= (- |x'?10?10|) 0) (= havoc?5?5 0)
                (= (+ |tmp___1'?1?1| (- havoc?24?24)) 0)
                (= (+ |tmp___0'?27?27| (- havoc?5?5)) 0)
                (= (+ |k'?25?25| (- |k'?18?18|)) 0)
                (= (+ |j___0'?2?2| (- w?36?36)) 0)
                (= (+ |i'?26?26| (- |i'?20?20|)) 0)
                (= (+ |w'?3?3| (- |y'?8?8|) (- |x'?10?10|) -1) 0)
                (= (+ |z'?4?4| (- z?37?37) -1) 0)
                (= (+ |y'?28?28| (- |y'?8?8|)) 0)
                (= (+ |x'?29?29| (- |x'?10?10|)) 0)
                (= (+ delta_x (- (+ |x'?29?29| (- x?32?32)))) 0)
                (= (+ delta_y (- (+ |y'?28?28| (- y?31?31)))) 0)
                (= (+ delta_z (- (+ |z'?4?4| (- z?37?37)))) 0)
                (= (+ delta_w (- (+ |w'?3?3| (- w?36?36)))) 0)
                (= (+ delta_i (- (+ |i'?26?26| (- i?35?35)))) 0)
                (= (+ delta_j___0 (- (+ |j___0'?2?2| (- j___0?34?34)))) 0)
                (= (+ delta_k (- (+ |k'?25?25| (- k?33?33)))) 0)
                (= (+ delta_tmp___0
                        (- (+ |tmp___0'?27?27| (- tmp___0?30?30)))) 0)
                (= (+ delta_tmp___1 (- (+ |tmp___1'?1?1| (- tmp___1?38?38)))) 0)
                (= phi_x?16?16 (+ (* 2 quotient?42) remainder?40))
                (<= 0 remainder?40)
                (or (<= remainder?40 (+ 2 -1)) (<= remainder?40 (+ -2 -1)))
                (= z?37?37 (+ (* 2 quotient?41) remainder?39))
                (<= 0 remainder?39)
                (or (<= remainder?39 (+ 2 -1)) (<= remainder?39 (+ -2 -1))))))
(check-sat)